Minimize
	value: tt

Subject to
tt + 2000 s_1_1 > 0
tt - t_1_1 - 2000.000000 s_1_1 > -1996.033700
tt + 2000 s_2_1 > 0
tt - t_2_1 - 2000.000000 s_2_1 > -1997.260500
tt + 2000 s_1_2 > 0
tt - t_1_2 - 2000.000000 s_1_2 > -1980.242300
tt + 2000 s_2_2 > 0
tt - t_2_2 - 2000.000000 s_2_2 > -1989.404900
tt + 2000 s_1_3 > 0
tt - t_1_3 - 2000.000000 s_1_3 > -1999.828600
tt + 2000 s_2_3 > 0
tt - t_2_3 - 2000.000000 s_2_3 > -1998.782100
tt + 2000 s_1_4 > 0
tt - t_1_4 - 2021.342690 s_1_4 + 21.342690 s_1_3 > -1999.952700
tt + 2000 s_2_4 > 0
tt - t_2_4 - 2028.203690 s_2_4 + 28.203690 s_2_3 > -1998.766500
s_1_1 + s_2_1  = 1
s_1_2 + s_2_2  = 1
s_1_3 + s_2_3  = 1
s_1_4 + s_2_4  = 1
t_1_1 - t_1_2 + 2000.000000 u_1_1_2 > 19.757700
t_1_2 - t_1_1 - 2000.000000 u_1_1_2 > -1996.033700
t_2_1 - t_2_2 + 2000.000000 u_2_1_2 > 10.595100
t_2_2 - t_2_1 - 2000.000000 u_2_1_2 > -1997.260500
t_1_1 - t_1_3 + 2000.000000 u_1_1_3 > 0.171400
t_1_3 - t_1_1 - 2000.000000 u_1_1_3 > -1996.033700
t_2_1 - t_2_3 + 2000.000000 u_2_1_3 > 1.217900
t_2_3 - t_2_1 - 2000.000000 u_2_1_3 > -1997.260500
t_1_4 - t_1_1 - 2000.000000 s_1_1 > -1992.392830
t_1_4 - t_2_1 - 2000.000000 s_2_1 > -1991.605510
t_2_4 - t_1_1 - 2000.000000 s_1_1 > -1992.392830
t_2_4 - t_2_1 - 2000.000000 s_2_1 > -1991.605510
t_1_2 - t_1_1 + 2000.000000 u_1_2_1 > 3.966300
t_1_1 - t_1_2 - 2000.000000 u_1_2_1 > -1980.242300
t_2_2 - t_2_1 + 2000.000000 u_2_2_1 > 2.739500
t_2_1 - t_2_2 - 2000.000000 u_2_2_1 > -1989.404900
t_1_2 - t_1_3 + 2000.000000 u_1_2_3 > 0.171400
t_1_3 - t_1_2 - 2000.000000 u_1_2_3 > -1980.242300
t_2_2 - t_2_3 + 2000.000000 u_2_2_3 > 1.217900
t_2_3 - t_2_2 - 2000.000000 u_2_2_3 > -1989.404900
t_1_4 - t_1_2 - 2000.000000 s_1_2 > -1976.601430
t_1_4 - t_2_2 - 2000.000000 s_2_2 > -1983.749910
t_2_4 - t_1_2 - 2000.000000 s_1_2 > -1976.601430
t_2_4 - t_2_2 - 2000.000000 s_2_2 > -1983.749910
t_1_3 - t_1_1 + 2000.000000 u_1_3_1 > 3.966300
t_1_1 - t_1_3 - 2000.000000 u_1_3_1 > -1999.828600
t_2_3 - t_2_1 + 2000.000000 u_2_3_1 > 2.739500
t_2_1 - t_2_3 - 2000.000000 u_2_3_1 > -1998.782100
t_1_3 - t_1_2 + 2000.000000 u_1_3_2 > 19.757700
t_1_2 - t_1_3 - 2000.000000 u_1_3_2 > -1999.828600
t_2_3 - t_2_2 + 2000.000000 u_2_3_2 > 10.595100
t_2_2 - t_2_3 - 2000.000000 u_2_3_2 > -1998.782100
t_1_4 - t_1_3 - 2000.000000 s_1_3 > -1996.187730
t_1_4 - t_2_3 - 2000.000000 s_2_3 > -1993.127110
t_2_4 - t_1_3 - 2000.000000 s_1_3 > -1996.187730
t_2_4 - t_2_3 - 2000.000000 s_2_3 > -1993.127110
t_1_4 - t_1_1 - 2000.000000 s_1_1 > -1992.392830
t_1_4 - t_2_1 - 2000.000000 s_2_1 > -1991.605510
t_2_4 - t_1_1 - 2000.000000 s_1_1 > -1992.392830
t_2_4 - t_2_1 - 2000.000000 s_2_1 > -1991.605510
t_1_4 - t_1_2 - 2000.000000 s_1_2 > -1976.601430
t_1_4 - t_2_2 - 2000.000000 s_2_2 > -1983.749910
t_2_4 - t_1_2 - 2000.000000 s_1_2 > -1976.601430
t_2_4 - t_2_2 - 2000.000000 s_2_2 > -1983.749910
t_1_4 - t_1_3 - 2000.000000 s_1_3 > -1996.187730
t_1_4 - t_2_3 - 2000.000000 s_2_3 > -1993.127110
t_2_4 - t_1_3 - 2000.000000 s_1_3 > -1996.187730
t_2_4 - t_2_3 - 2000.000000 s_2_3 > -1993.127110
Binary
s_1_1
s_2_1
s_1_2
s_2_2
s_1_3
s_2_3
s_1_4
s_2_4
u_1_1_2
u_2_1_2
u_1_1_3
u_2_1_3
u_1_2_1
u_2_2_1
u_1_2_3
u_2_2_3
u_1_3_1
u_2_3_1
u_1_3_2
u_2_3_2

End
